90 15279331
26 66 38 76 28 42 48 72 74 53 6 85 20 29 33 50 49 82 80 35 30 84 39 62 61 36 8 5 15 17 16 45 57 56 18 41 3 64 79 31 75 88 37 81 60 34 71 73 19 52 65 63 78 25 24 77 44 43 4 55 32 22 10 58 89 1 67 83 21 68 14 27 9 86 47 7 87 51 69 13 54 59 12 70 11 2 40 46 90 23 
